Solver command line: []

Read LP format model from file C:\Users\wlhlm\AppData\Local\Temp\tmp4pr620_d.pyomo.lp
Reading time = 2.96 seconds
objective: 996960 rows, 878399 columns, 2253054 nonzeros
Set parameter MIPGap to value 0.03
Gurobi Optimizer version 12.0.1 build v12.0.1rc0 (win64 - Windows 11.0 (26100.2))

CPU model: Intel(R) Core(TM) Ultra 7 258V, instruction set [SSE2|AVX|AVX2]
Thread count: 8 physical cores, 8 logical processors, using up to 8 threads

Non-default parameters:
MIPGap  0.03

Optimize a model with 996960 rows, 878399 columns and 2253054 nonzeros
Model fingerprint: 0x382af93b
Model has 8783 quadratic constraints
Variable types: 755424 continuous, 122975 integer (105408 binary)
Coefficient statistics:
  Matrix range     [8e-03, 2e+02]
  QMatrix range    [1e+00, 1e+00]
  Objective range  [1e-02, 4e+02]
  Bounds range     [1e+00, 3e+00]
  RHS range        [8e-05, 1e+04]
Presolve removed 789181 rows and 655036 columns
Presolve time: 0.63s
Presolved: 207779 rows, 223363 columns, 648262 nonzeros
Variable types: 142675 continuous, 80688 integer (71904 binary)
Performing another presolve...
Presolve removed 70438 rows and 70438 columns (presolve time = 9s)...
Presolve removed 70438 rows and 70438 columns
Presolve time: 9.15s
Deterministic concurrent LP optimizer: primal and dual simplex
Showing primal log only...


Root simplex log...

Iteration    Objective       Primal Inf.    Dual Inf.      Time
       0    6.6654888e+07   2.066138e+06   3.517153e+13     11s
Concurrent spin time: 0.00s

Solved with dual simplex

Root simplex log...

Iteration    Objective       Primal Inf.    Dual Inf.      Time
   65748    6.1049880e+07   0.000000e+00   0.000000e+00     15s

Root relaxation: objective 6.104988e+07, 65748 iterations, 4.09 seconds (5.22 work units)
Total elapsed time = 14.83s (DegenMoves)
Total elapsed time = 15.30s (DegenMoves)

    Nodes    |    Current Node    |     Objective Bounds      |     Work
 Expl Unexpl |  Obj  Depth IntInf | Incumbent    BestBd   Gap | It/Node Time

     0     0 6.1050e+07    0  364          - 6.1050e+07      -     -   17s
H    0     0                    6.108204e+07 6.1050e+07  0.05%     -   18s

Explored 1 nodes (73974 simplex iterations) in 18.51 seconds (20.44 work units)
Thread count was 8 (of 8 available processors)

Solution count 1: 6.1082e+07 

Optimal solution found (tolerance 3.00e-02)
Best objective 6.108203942795e+07, best bound 6.104987965076e+07, gap 0.0527%

